6 40 4 10
19 4 1 4 15 2 19 19 11 9 6 16 6 17 15 14 17 3 10 18 3 17 1 2 16 2 8 5 15 1 15 11 14 7 4 11 8 6 16 10 
4.72 1.44 1.61 5.45 2.36 3.35 5.39 1.72 1 0.29 6.05 7.93 2.06 2.67 3.81 5.04 3.11 0.23 2 5.51 1.13 7.98 7.35 2.2 2.14 3.77 6.02 6.75 7.1 1.44 0.25 5.45 5.04 5.48 0.21 3.66 7.37 6.37 5.1 5.31 
2.64 7.72 6.42 0.65 7.97 7.11 2.57 7.25 3.34 0.94 1.78 6.17 2.95 3.29 3.99 4.89 1.98 1.82 5.9 3.73 2.02 3.94 3.12 7.07 3.56 6.62 0.64 5.06 2.19 0.24 7.54 5.26 2.82 6.08 2.73 7.96 1.22 3.32 5.61 6.88 
3.06 0.35 3.42 2.39 0.64 7.89 7.76 6.21 4.14 3.77 1.03 7.75 4.83 2.76 4.94 1.13 6.9 5.84 4.44 2.02 1.69 7.57 4.3 0.46 4.55 1.84 3.76 2.63 3.47 5.45 2.05 3.11 5.4 7.14 2.65 6.2 0.11 1.12 0.21 6.28 
2.3 2.02 6.06 6.66 0.02 5.49 5.01 5.58 4.88 7.04 1.71 5.18 3.45 3.98 3.35 5.52 4.67 5.36 4 5.41 2.88 4.87 4.15 6.38 3.26 2.06 5.01 6.12 0.81 5.33 3.53 7.63 4.23 6.65 7.8 6.42 6.2 4.21 7.94 5.06 
4 4 4 4 4 4 4 4 4 4 4 4 4 4 4 4 4 4 4 4 4 4 4 4 4 4 4 4 4 4 4 4 4 4 4 4 4 4 4 4 
0.99 2.38 7.28 5.99 2.77 0.58 1.2 3.8 4.65 4.75 0.52 2.08 6.75 5.19 1.56 1.49 5.9 2.46 2.87 4.63 2.76 3.63 3.43 4.55 4.39 3.28 1.95 2.08 2.47 0.05 0.76 1.1 3.19 5.08 5.69 4.41 5.65 2.04 1.83 2.15 
1 1 1 1 1 1 1 1 1 1 1 1 1 1 1 1 1 1 1 1 1 1 1 1 1 1 1 1 1 1 1 1 1 1 1 1 1 1 1 1 
1 1 1 1 1 1 1 1 1 1 1 1 1 1 1 1 1 1 1 1 1 1 1 1 1 1 1 1 1 1 1 1 1 1 1 1 1 1 1 1 
1 1 1 1 1 1 1 1 1 1 1 1 1 1 1 1 1 1 1 1 1 1 1 1 1 1 1 1 1 1 1 1 1 1 1 1 1 1 1 1 
1 1 1 1 1 1 1 1 1 1 1 1 1 1 1 1 1 1 1 1 1 1 1 1 1 1 1 1 1 1 1 1 1 1 1 1 1 1 1 1 
1 1 1 1 1 1 1 1 1 1 1 1 1 1 1 1 1 1 1 1 1 1 1 1 1 1 1 1 1 1 1 1 1 1 1 1 1 1 1 1 
1 1 1 1 1 1 1 1 1 1 1 1 1 1 1 1 1 1 1 1 1 1 1 1 1 1 1 1 1 1 1 1 1 1 1 1 1 1 1 1 
0.01 0.01 0.01 0.01 0.01 0.01 0.01 0.01 0.01 0.01 0.01 0.01 0.01 0.01 0.01 0.01 0.01 0.01 0.01 0.01 0.01 0.01 0.01 0.01 0.01 0.01 0.01 0.01 0.01 0.01 0.01 0.01 0.01 0.01 0.01 0.01 0.01 0.01 0.01 0.01 
0.02 0.02 0.02 0.02 0.02 0.02 0.02 0.02 0.02 0.02 0.02 0.02 0.02 0.02 0.02 0.02 0.02 0.02 0.02 0.02 0.02 0.02 0.02 0.02 0.02 0.02 0.02 0.02 0.02 0.02 0.02 0.02 0.02 0.02 0.02 0.02 0.02 0.02 0.02 0.02 
0.03 0.03 0.03 0.03 0.03 0.03 0.03 0.03 0.03 0.03 0.03 0.03 0.03 0.03 0.03 0.03 0.03 0.03 0.03 0.03 0.03 0.03 0.03 0.03 0.03 0.03 0.03 0.03 0.03 0.03 0.03 0.03 0.03 0.03 0.03 0.03 0.03 0.03 0.03 0.03 
0.04 0.04 0.04 0.04 0.04 0.04 0.04 0.04 0.04 0.04 0.04 0.04 0.04 0.04 0.04 0.04 0.04 0.04 0.04 0.04 0.04 0.04 0.04 0.04 0.04 0.04 0.04 0.04 0.04 0.04 0.04 0.04 0.04 0.04 0.04 0.04 0.04 0.04 0.04 0.04 
0.05 0.05 0.05 0.05 0.05 0.05 0.05 0.05 0.05 0.05 0.05 0.05 0.05 0.05 0.05 0.05 0.05 0.05 0.05 0.05 0.05 0.05 0.05 0.05 0.05 0.05 0.05 0.05 0.05 0.05 0.05 0.05 0.05 0.05 0.05 0.05 0.05 0.05 0.05 0.05 
1 1 1 1 1 1 1 1 1 1 1 1 1 1 1 1 1 1 1 1 1 1 1 1 1 1 1 1 1 1 1 1 1 1 1 1 1 1 1 1 
